experimental-results/original-data/fig4/urquhart-simon-03-01.cnf
c Random Instance of Urquhart's Problem for SAT (size=3 randomSeed=1).
c Like Hole, this problem as been proved to be exponential for resolution.
c N.B. : instance is unsatisfiable by construction.
c 
c Come from the paper 'Hard Examples for Resolution'.
c        Source : Laurent Simon, simon@lri.fr. May 1999.
c 
c n=3, so there is m^2=9 vertices in each part of the bipartite graph. 
c Bases creations : 
c   - a '1' charge is 'there must be an even number of negated vars'
c   - edges contains variables from which all subbases are constructed.
c vertex A0 :(charge=1), (edges=[4,38])
c vertex A1 :(charge=0), (edges=[34,28,9,30,19,38,1])
c vertex A2 :(charge=1), (edges=[20,37,36,1,15])
c vertex A3 :(charge=1), (edges=[24,31,15,2])
c vertex A4 :(charge=1), (edges=[25,40,8,41,6,2,17])
c vertex A5 :(charge=1), (edges=[12,5,13,17,3])
c vertex A6 :(charge=0), (edges=[22,3,26])
c vertex A7 :(charge=1), (edges=[10,26,27])
c vertex A8 :(charge=1), (edges=[21,7,32,35,27])
c vertex B0 :(charge=1), (edges=[4,28,40,35,14])
c vertex B1 :(charge=0), (edges=[34,37,8,7,14,33])
c vertex B2 :(charge=1), (edges=[10,9,41,13,32,33,18])
c vertex B3 :(charge=0), (edges=[20,30,18,16])
c vertex B4 :(charge=1), (edges=[22,16,11])
c vertex B5 :(charge=1), (edges=[25,19,5,11,29])
c vertex B6 :(charge=0), (edges=[12,6,29,23])
c vertex B7 :(charge=0), (edges=[24,36,23,39])
c vertex B8 :(charge=0), (edges=[21,31,39])
c 
p cnf 41 354
4 38 0
-4 -38 0
34 28 9 30 19 38 -1 0
34 28 9 30 19 -38 1 0
34 28 9 30 -19 38 1 0
34 28 9 30 -19 -38 -1 0
34 28 9 -30 19 38 1 0
34 28 9 -30 19 -38 -1 0
34 28 9 -30 -19 38 -1 0
34 28 9 -30 -19 -38 1 0
34 28 -9 30 19 38 1 0
34 28 -9 30 19 -38 -1 0
34 28 -9 30 -19 38 -1 0
34 28 -9 30 -19 -38 1 0
34 28 -9 -30 19 38 -1 0
34 28 -9 -30 19 -38 1 0
34 28 -9 -30 -19 38 1 0
34 28 -9 -30 -19 -38 -1 0
34 -28 9 30 19 38 1 0
34 -28 9 30 19 -38 -1 0
34 -28 9 30 -19 38 -1 0
34 -28 9 30 -19 -38 1 0
34 -28 9 -30 19 38 -1 0
34 -28 9 -30 19 -38 1 0
34 -28 9 -30 -19 38 1 0
34 -28 9 -30 -19 -38 -1 0
34 -28 -9 30 19 38 -1 0
34 -28 -9 30 19 -38 1 0
34 -28 -9 30 -19 38 1 0
34 -28 -9 30 -19 -38 -1 0
34 -28 -9 -30 19 38 1 0
34 -28 -9 -30 19 -38 -1 0
34 -28 -9 -30 -19 38 -1 0
34 -28 -9 -30 -19 -38 1 0
-34 28 9 30 19 38 1 0
-34 28 9 30 19 -38 -1 0
-34 28 9 30 -19 38 -1 0
-34 28 9 30 -19 -38 1 0
-34 28 9 -30 19 38 -1 0
-34 28 9 -30 19 -38 1 0
-34 28 9 -30 -19 38 1 0
-34 28 9 -30 -19 -38 -1 0
-34 28 -9 30 19 38 -1 0
-34 28 -9 30 19 -38 1 0
-34 28 -9 30 -19 38 1 0
-34 28 -9 30 -19 -38 -1 0
-34 28 -9 -30 19 38 1 0
-34 28 -9 -30 19 -38 -1 0
-34 28 -9 -30 -19 38 -1 0
-34 28 -9 -30 -19 -38 1 0
-34 -28 9 30 19 38 -1 0
-34 -28 9 30 19 -38 1 0
-34 -28 9 30 -19 38 1 0
-34 -28 9 30 -19 -38 -1 0
-34 -28 9 -30 19 38 1 0
-34 -28 9 -30 19 -38 -1 0
-34 -28 9 -30 -19 38 -1 0
-34 -28 9 -30 -19 -38 1 0
-34 -28 -9 30 19 38 1 0
-34 -28 -9 30 19 -38 -1 0
-34 -28 -9 30 -19 38 -1 0
-34 -28 -9 30 -19 -38 1 0
-34 -28 -9 -30 19 38 -1 0
-34 -28 -9 -30 19 -38 1 0
-34 -28 -9 -30 -19 38 1 0
-34 -28 -9 -30 -19 -38 -1 0
20 37 36 1 15 0
20 37 36 -1 -15 0
20 37 -36 1 -15 0
20 37 -36 -1 15 0
20 -37 36 1 -15 0
20 -37 36 -1 15 0
20 -37 -36 1 15 0
20 -37 -36 -1 -15 0
-20 37 36 1 -15 0
-20 37 36 -1 15 0
-20 37 -36 1 15 0
-20 37 -36 -1 -15 0
-20 -37 36 1 15 0
-20 -37 36 -1 -15 0
-20 -37 -36 1 -15 0
-20 -37 -36 -1 15 0
24 31 15 2 0
24 31 -15 -2 0
24 -31 15 -2 0
24 -31 -15 2 0
-24 31 15 -2 0
-24 31 -15 2 0
-24 -31 15 2 0
-24 -31 -15 -2 0
25 40 8 41 6 2 17 0
25 40 8 41 6 -2 -17 0
25 40 8 41 -6 2 -17 0
25 40 8 41 -6 -2 17 0
25 40 8 -41 6 2 -17 0
25 40 8 -41 6 -2 17 0
25 40 8 -41 -6 2 17 0
25 40 8 -41 -6 -2 -17 0
25 40 -8 41 6 2 -17 0
25 40 -8 41 6 -2 17 0
25 40 -8 41 -6 2 17 0
25 40 -8 41 -6 -2 -17 0
25 40 -8 -41 6 2 17 0
25 40 -8 -41 6 -2 -17 0
25 40 -8 -41 -6 2 -17 0
25 40 -8 -41 -6 -2 17 0
25 -40 8 41 6 2 -17 0
25 -40 8 41 6 -2 17 0
25 -40 8 41 -6 2 17 0
25 -40 8 41 -6 -2 -17 0
25 -40 8 -41 6 2 17 0
25 -40 8 -41 6 -2 -17 0
25 -40 8 -41 -6 2 -17 0
25 -40 8 -41 -6 -2 17 0
25 -40 -8 41 6 2 17 0
25 -40 -8 41 6 -2 -17 0
25 -40 -8 41 -6 2 -17 0
25 -40 -8 41 -6 -2 17 0
25 -40 -8 -41 6 2 -17 0
25 -40 -8 -41 6 -2 17 0
25 -40 -8 -41 -6 2 17 0
25 -40 -8 -41 -6 -2 -17 0
-25 40 8 41 6 2 -17 0
-25 40 8 41 6 -2 17 0
-25 40 8 41 -6 2 17 0
-25 40 8 41 -6 -2 -17 0
-25 40 8 -41 6 2 17 0
-25 40 8 -41 6 -2 -17 0
-25 40 8 -41 -6 2 -17 0
-25 40 8 -41 -6 -2 17 0
-25 40 -8 41 6 2 17 0
-25 40 -8 41 6 -2 -17 0
-25 40 -8 41 -6 2 -17 0
-25 40 -8 41 -6 -2 17 0
-25 40 -8 -41 6 2 -17 0
-25 40 -8 -41 6 -2 17 0
-25 40 -8 -41 -6 2 17 0
-25 40 -8 -41 -6 -2 -17 0
-25 -40 8 41 6 2 17 0
-25 -40 8 41 6 -2 -17 0
-25 -40 8 41 -6 2 -17 0
-25 -40 8 41 -6 -2 17 0
-25 -40 8 -41 6 2 -17 0
-25 -40 8 -41 6 -2 17 0
-25 -40 8 -41 -6 2 17 0
-25 -40 8 -41 -6 -2 -17 0
-25 -40 -8 41 6 2 -17 0
-25 -40 -8 41 6 -2 17 0
-25 -40 -8 41 -6 2 17 0
-25 -40 -8 41 -6 -2 -17 0
-25 -40 -8 -41 6 2 17 0
-25 -40 -8 -41 6 -2 -17 0
-25 -40 -8 -41 -6 2 -17 0
-25 -40 -8 -41 -6 -2 17 0
12 5 13 17 3 0
12 5 13 -17 -3 0
12 5 -13 17 -3 0
12 5 -13 -17 3 0
12 -5 13 17 -3 0
12 -5 13 -17 3 0
12 -5 -13 17 3 0
12 -5 -13 -17 -3 0
-12 5 13 17 -3 0
-12 5 13 -17 3 0
-12 5 -13 17 3 0
-12 5 -13 -17 -3 0
-12 -5 13 17 3 0
-12 -5 13 -17 -3 0
-12 -5 -13 17 -3 0
-12 -5 -13 -17 3 0
22 3 -26 0
22 -3 26 0
-22 3 26 0
-22 -3 -26 0
10 26 27 0
10 -26 -27 0
-10 26 -27 0
-10 -26 27 0
21 7 32 35 27 0
21 7 32 -35 -27 0
21 7 -32 35 -27 0
21 7 -32 -35 27 0
21 -7 32 35 -27 0
21 -7 32 -35 27 0
21 -7 -32 35 27 0
21 -7 -32 -35 -27 0
-21 7 32 35 -27 0
-21 7 32 -35 27 0
-21 7 -32 35 27 0
-21 7 -32 -35 -27 0
-21 -7 32 35 27 0
-21 -7 32 -35 -27 0
-21 -7 -32 35 -27 0
-21 -7 -32 -35 27 0
4 28 40 35 14 0
4 28 40 -35 -14 0
4 28 -40 35 -14 0
4 28 -40 -35 14 0
4 -28 40 35 -14 0
4 -28 40 -35 14 0
4 -28 -40 35 14 0
4 -28 -40 -35 -14 0
-4 28 40 35 -14 0
-4 28 40 -35 14 0
-4 28 -40 35 14 0
-4 28 -40 -35 -14 0
-4 -28 40 35 14 0
-4 -28 40 -35 -14 0
-4 -28 -40 35 -14 0
-4 -28 -40 -35 14 0
34 37 8 7 14 -33 0
34 37 8 7 -14 33 0
34 37 8 -7 14 33 0
34 37 8 -7 -14 -33 0
34 37 -8 7 14 33 0
34 37 -8 7 -14 -33 0
34 37 -8 -7 14 -33 0
34 37 -8 -7 -14 33 0
34 -37 8 7 14 33 0
34 -37 8 7 -14 -33 0
34 -37 8 -7 14 -33 0
34 -37 8 -7 -14 33 0
34 -37 -8 7 14 -33 0
34 -37 -8 7 -14 33 0
34 -37 -8 -7 14 33 0
34 -37 -8 -7 -14 -33 0
-34 37 8 7 14 33 0
-34 37 8 7 -14 -33 0
-34 37 8 -7 14 -33 0
-34 37 8 -7 -14 33 0
-34 37 -8 7 14 -33 0
-34 37 -8 7 -14 33 0
-34 37 -8 -7 14 33 0
-34 37 -8 -7 -14 -33 0
-34 -37 8 7 14 -33 0
-34 -37 8 7 -14 33 0
-34 -37 8 -7 14 33 0
-34 -37 8 -7 -14 -33 0
-34 -37 -8 7 14 33 0
-34 -37 -8 7 -14 -33 0
-34 -37 -8 -7 14 -33 0
-34 -37 -8 -7 -14 33 0
10 9 41 13 32 33 18 0
10 9 41 13 32 -33 -18 0
10 9 41 13 -32 33 -18 0
10 9 41 13 -32 -33 18 0
10 9 41 -13 32 33 -18 0
10 9 41 -13 32 -33 18 0
10 9 41 -13 -32 33 18 0
10 9 41 -13 -32 -33 -18 0
10 9 -41 13 32 33 -18 0
10 9 -41 13 32 -33 18 0
10 9 -41 13 -32 33 18 0
10 9 -41 13 -32 -33 -18 0
10 9 -41 -13 32 33 18 0
10 9 -41 -13 32 -33 -18 0
10 9 -41 -13 -32 33 -18 0
10 9 -41 -13 -32 -33 18 0
10 -9 41 13 32 33 -18 0
10 -9 41 13 32 -33 18 0
10 -9 41 13 -32 33 18 0
10 -9 41 13 -32 -33 -18 0
10 -9 41 -13 32 33 18 0
10 -9 41 -13 32 -33 -18 0
10 -9 41 -13 -32 33 -18 0
10 -9 41 -13 -32 -33 18 0
10 -9 -41 13 32 33 18 0
10 -9 -41 13 32 -33 -18 0
10 -9 -41 13 -32 33 -18 0
10 -9 -41 13 -32 -33 18 0
10 -9 -41 -13 32 33 -18 0
10 -9 -41 -13 32 -33 18 0
10 -9 -41 -13 -32 33 18 0
10 -9 -41 -13 -32 -33 -18 0
-10 9 41 13 32 33 -18 0
-10 9 41 13 32 -33 18 0
-10 9 41 13 -32 33 18 0
-10 9 41 13 -32 -33 -18 0
-10 9 41 -13 32 33 18 0
-10 9 41 -13 32 -33 -18 0
-10 9 41 -13 -32 33 -18 0
-10 9 41 -13 -32 -33 18 0
-10 9 -41 13 32 33 18 0
-10 9 -41 13 32 -33 -18 0
-10 9 -41 13 -32 33 -18 0
-10 9 -41 13 -32 -33 18 0
-10 9 -41 -13 32 33 -18 0
-10 9 -41 -13 32 -33 18 0
-10 9 -41 -13 -32 33 18 0
-10 9 -41 -13 -32 -33 -18 0
-10 -9 41 13 32 33 18 0
-10 -9 41 13 32 -33 -18 0
-10 -9 41 13 -32 33 -18 0
-10 -9 41 13 -32 -33 18 0
-10 -9 41 -13 32 33 -18 0
-10 -9 41 -13 32 -33 18 0
-10 -9 41 -13 -32 33 18 0
-10 -9 41 -13 -32 -33 -18 0
-10 -9 -41 13 32 33 -18 0
-10 -9 -41 13 32 -33 18 0
-10 -9 -41 13 -32 33 18 0
-10 -9 -41 13 -32 -33 -18 0
-10 -9 -41 -13 32 33 18 0
-10 -9 -41 -13 32 -33 -18 0
-10 -9 -41 -13 -32 33 -18 0
-10 -9 -41 -13 -32 -33 18 0
20 30 18 -16 0
20 30 -18 16 0
20 -30 18 16 0
20 -30 -18 -16 0
-20 30 18 16 0
-20 30 -18 -16 0
-20 -30 18 -16 0
-20 -30 -18 16 0
22 16 11 0
22 -16 -11 0
-22 16 -11 0
-22 -16 11 0
25 19 5 11 29 0
25 19 5 -11 -29 0
25 19 -5 11 -29 0
25 19 -5 -11 29 0
25 -19 5 11 -29 0
25 -19 5 -11 29 0
25 -19 -5 11 29 0
25 -19 -5 -11 -29 0
-25 19 5 11 -29 0
-25 19 5 -11 29 0
-25 19 -5 11 29 0
-25 19 -5 -11 -29 0
-25 -19 5 11 29 0
-25 -19 5 -11 -29 0
-25 -19 -5 11 -29 0
-25 -19 -5 -11 29 0
12 6 29 -23 0
12 6 -29 23 0
12 -6 29 23 0
12 -6 -29 -23 0
-12 6 29 23 0
-12 6 -29 -23 0
-12 -6 29 -23 0
-12 -6 -29 23 0
24 36 23 -39 0
24 36 -23 39 0
24 -36 23 39 0
24 -36 -23 -39 0
-24 36 23 39 0
-24 36 -23 -39 0
-24 -36 23 -39 0
-24 -36 -23 39 0
21 31 -39 0
21 -31 39 0
-21 31 39 0
-21 -31 -39 0
